n=17;
m=15;
Ba=4.544933;
Bp=1.413333;
Ha=[[0.300000,0.300000,0.300000,0.300000,0.300000,0.300000,0.300000,0.300000,0.300000,0.300000,0.000000,0.000000,0.000000,0.000000,0.000000,0.000000,0.000000],[0.054000,0.054000,13.600000,13.600000,13.600000,0.054000,0.054000,0.054000,0.054000,0.054000,0.054000,0.000000,0.000000,0.000000,0.000000,0.000000,0.000000],[0.054000,0.054000,13.600000,13.600000,13.600000,0.054000,0.054000,0.054000,0.054000,0.054000,0.054000,0.054000,0.054000,0.000000,0.000000,0.000000,0.000000],[0.054000,0.054000,13.600000,13.600000,13.600000,0.054000,0.054000,0.054000,0.054000,0.054000,0.054000,0.054000,0.054000,0.000000,0.000000,0.000000,0.000000],[0.054000,0.054000,13.600000,13.600000,13.600000,0.054000,0.054000,0.054000,0.054000,0.054000,0.054000,0.054000,0.054000,0.000000,0.000000,0.000000,0.000000],[0.054000,0.054000,13.600000,13.600000,13.600000,0.054000,0.054000,0.054000,0.054000,0.054000,0.054000,0.054000,0.054000,0.000000,0.000000,0.000000,0.000000],[0.054000,0.054000,0.054000,0.054000,0.054000,0.054000,0.054000,0.054000,0.054000,0.054000,0.054000,0.054000,0.054000,0.000000,0.000000,0.000000,0.000000],[0.054000,0.054000,0.054000,0.054000,0.054000,0.054000,0.054000,0.054000,0.054000,0.054000,0.054000,0.054000,0.054000,0.000000,0.000000,0.000000,0.000000],[0.054000,0.300000,0.300000,0.300000,0.300000,0.300000,0.054000,0.054000,0.054000,0.054000,0.054000,0.054000,0.054000,0.000000,0.000000,0.000000,0.000000],[3.000000,3.000000,3.000000,3.000000,3.000000,3.000000,3.000000,0.054000,0.054000,0.054000,0.054000,0.054000,0.054000,0.000000,0.000000,0.000000,0.000000],[3.000000,3.000000,3.000000,3.000000,3.000000,3.000000,3.000000,0.054000,0.054000,0.054000,0.054000,0.054000,0.054000,0.000000,0.000000,0.000000,0.000000],[3.000000,3.000000,3.000000,3.000000,3.000000,3.000000,3.000000,0.054000,0.054000,0.054000,0.054000,0.054000,0.054000,0.000000,0.000000,0.000000,0.000000],[3.000000,3.000000,3.000000,3.000000,3.000000,3.000000,3.000000,0.054000,0.054000,0.054000,0.054000,0.054000,0.054000,0.000000,0.000000,0.000000,0.000000],[3.000000,3.000000,3.000000,3.000000,3.000000,3.000000,3.000000,0.054000,0.054000,0.054000,0.054000,0.054000,0.054000,0.000000,0.000000,0.000000,0.000000],[0.054000,0.054000,0.054000,0.054000,0.054000,0.054000,0.054000,0.054000,0.054000,0.054000,0.054000,0.054000,0.054000,0.000000,0.000000,0.000000,0.000000]];
Ca=[[0.670000,0.670000,0.670000,0.670000,0.670000,0.670000,0.670000,0.670000,0.670000,0.670000,510.000000,510.000000,510.000000,510.000000,510.000000,0.000000,0.000000],[0.720000,0.720000,0.125000,0.125000,0.125000,0.720000,0.720000,0.720000,0.720000,0.720000,0.720000,510.000000,510.000000,510.000000,510.000000,0.000000,0.000000],[0.720000,0.720000,0.125000,0.125000,0.125000,0.720000,0.720000,0.720000,0.720000,0.720000,0.720000,0.720000,0.720000,510.000000,510.000000,0.000000,0.000000],[0.720000,0.720000,0.125000,0.125000,0.125000,0.720000,0.720000,0.720000,0.720000,0.720000,0.720000,0.720000,0.720000,510.000000,510.000000,0.000000,0.000000],[0.720000,0.720000,0.125000,0.125000,0.125000,0.720000,0.720000,0.720000,0.720000,0.720000,0.720000,0.720000,0.720000,510.000000,510.000000,0.000000,0.000000],[0.720000,0.720000,0.125000,0.125000,0.125000,0.720000,0.720000,0.720000,0.720000,0.720000,0.720000,0.720000,0.720000,510.000000,510.000000,0.000000,0.000000],[0.720000,0.720000,0.720000,0.720000,0.720000,0.720000,0.720000,0.720000,0.720000,0.720000,0.720000,0.720000,0.720000,510.000000,510.000000,0.000000,0.000000],[0.720000,0.720000,0.720000,0.720000,0.720000,0.720000,0.720000,0.720000,0.720000,0.720000,0.720000,0.720000,0.720000,510.000000,510.000000,0.000000,0.000000],[0.720000,0.670000,0.670000,0.670000,0.670000,0.670000,0.720000,0.720000,0.720000,0.720000,0.720000,0.720000,0.720000,510.000000,510.000000,0.000000,0.000000],[0.365000,0.365000,0.365000,0.365000,0.365000,0.365000,0.365000,0.720000,0.720000,0.720000,0.720000,0.720000,0.720000,510.000000,510.000000,0.000000,0.000000],[0.365000,0.365000,0.365000,0.365000,0.365000,0.365000,0.365000,0.720000,0.720000,0.720000,0.720000,0.720000,0.720000,510.000000,510.000000,0.000000,0.000000],[0.365000,0.365000,0.365000,0.365000,0.365000,0.365000,0.365000,0.720000,0.720000,0.720000,0.720000,0.720000,0.720000,510.000000,510.000000,0.000000,0.000000],[0.365000,0.365000,0.365000,0.365000,0.365000,0.365000,0.365000,0.720000,0.720000,0.720000,0.720000,0.720000,0.720000,510.000000,510.000000,0.000000,0.000000],[0.365000,0.365000,0.365000,0.365000,0.365000,0.365000,0.365000,0.720000,0.720000,0.720000,0.720000,0.720000,0.720000,510.000000,510.000000,0.000000,0.000000],[0.720000,0.720000,0.720000,0.720000,0.720000,0.720000,0.720000,0.720000,0.720000,0.720000,0.720000,0.720000,0.720000,510.000000,510.000000,0.000000,0.000000]];
Hp=[[0.300000,0.300000,0.300000,0.300000,0.300000,0.300000,0.300000,0.300000,0.300000,0.300000,0.000000,0.000000,0.000000,0.000000,0.000000,0.000000,0.000000],[0.054000,0.054000,13.600000,13.600000,13.600000,0.054000,0.054000,0.054000,0.054000,0.054000,0.054000,0.000000,0.000000,0.000000,0.000000,0.000000,0.000000],[0.054000,0.054000,13.600000,13.600000,13.600000,0.054000,0.054000,0.054000,0.054000,0.054000,0.054000,0.054000,0.054000,0.000000,0.000000,0.000000,0.000000],[0.054000,0.054000,13.600000,13.600000,13.600000,0.054000,0.054000,0.054000,0.054000,0.054000,0.054000,0.054000,0.054000,0.000000,0.000000,0.000000,0.000000],[0.054000,0.054000,13.600000,13.600000,13.600000,0.054000,0.054000,0.054000,0.054000,0.054000,0.054000,0.054000,0.054000,0.000000,0.000000,0.000000,0.000000],[0.054000,0.054000,13.600000,13.600000,13.600000,0.054000,0.054000,0.054000,0.054000,0.054000,0.054000,0.054000,0.054000,0.000000,0.000000,0.000000,0.000000],[0.054000,0.054000,0.054000,0.054000,0.054000,0.054000,0.054000,0.054000,0.054000,0.054000,0.054000,0.054000,0.054000,0.000000,0.000000,0.000000,0.000000],[0.054000,0.054000,0.054000,0.054000,0.054000,0.054000,0.054000,0.054000,0.054000,0.054000,0.054000,0.054000,0.054000,0.000000,0.000000,0.000000,0.000000],[0.054000,0.300000,0.300000,0.300000,0.300000,0.300000,0.054000,0.054000,0.054000,0.054000,0.054000,0.054000,0.054000,0.000000,0.000000,0.000000,0.000000],[3.000000,3.000000,3.000000,3.000000,3.000000,3.000000,3.000000,0.054000,0.054000,0.054000,0.054000,0.054000,0.054000,0.000000,0.000000,0.000000,0.000000],[3.000000,3.000000,3.000000,3.000000,3.000000,3.000000,3.000000,0.054000,0.054000,0.054000,0.054000,0.054000,0.054000,0.000000,0.000000,0.000000,0.000000],[3.000000,3.000000,3.000000,3.000000,3.000000,3.000000,3.000000,0.054000,0.054000,0.054000,0.054000,0.054000,0.054000,0.000000,0.000000,0.000000,0.000000],[3.000000,3.000000,3.000000,3.000000,3.000000,3.000000,3.000000,0.054000,0.054000,0.054000,0.054000,0.054000,0.054000,0.000000,0.000000,0.000000,0.000000],[3.000000,3.000000,3.000000,3.000000,3.000000,3.000000,3.000000,0.054000,0.054000,0.054000,0.054000,0.054000,0.054000,0.000000,0.000000,0.000000,0.000000],[0.054000,0.054000,0.054000,0.054000,0.054000,0.054000,0.054000,0.054000,0.054000,0.054000,0.054000,0.054000,0.054000,0.000000,0.000000,0.000000,0.000000]];
Cp=[[0.670000,0.670000,0.670000,0.670000,0.670000,0.670000,0.670000,0.670000,0.670000,0.670000,510.000000,510.000000,510.000000,510.000000,510.000000,0.000000,0.000000],[0.720000,0.720000,0.125000,0.125000,0.125000,0.720000,0.720000,0.720000,0.720000,0.720000,0.720000,510.000000,510.000000,510.000000,510.000000,0.000000,0.000000],[0.720000,0.720000,0.125000,0.125000,0.125000,0.720000,0.720000,0.720000,0.720000,0.720000,0.720000,0.720000,0.720000,510.000000,510.000000,0.000000,0.000000],[0.720000,0.720000,0.125000,0.125000,0.125000,0.720000,0.720000,0.720000,0.720000,0.720000,0.720000,0.720000,0.720000,510.000000,510.000000,0.000000,0.000000],[0.720000,0.720000,0.125000,0.125000,0.125000,0.720000,0.720000,0.720000,0.720000,0.720000,0.720000,0.720000,0.720000,510.000000,510.000000,0.000000,0.000000],[0.720000,0.720000,0.125000,0.125000,0.125000,0.720000,0.720000,0.720000,0.720000,0.720000,0.720000,0.720000,0.720000,510.000000,510.000000,0.000000,0.000000],[0.720000,0.720000,0.720000,0.720000,0.720000,0.720000,0.720000,0.720000,0.720000,0.720000,0.720000,0.720000,0.720000,510.000000,510.000000,0.000000,0.000000],[0.720000,0.720000,0.720000,0.720000,0.720000,0.720000,0.720000,0.720000,0.720000,0.720000,0.720000,0.720000,0.720000,510.000000,510.000000,0.000000,0.000000],[0.720000,0.670000,0.670000,0.670000,0.670000,0.670000,0.720000,0.720000,0.720000,0.720000,0.720000,0.720000,0.720000,510.000000,510.000000,0.000000,0.000000],[0.365000,0.365000,0.365000,0.365000,0.365000,0.365000,0.365000,0.720000,0.720000,0.720000,0.720000,0.720000,0.720000,510.000000,510.000000,0.000000,0.000000],[0.365000,0.365000,0.365000,0.365000,0.365000,0.365000,0.365000,0.720000,0.720000,0.720000,0.720000,0.720000,0.720000,510.000000,510.000000,0.000000,0.000000],[0.365000,0.365000,0.365000,0.365000,0.365000,0.365000,0.365000,0.720000,0.720000,0.720000,0.720000,0.720000,0.720000,510.000000,510.000000,0.000000,0.000000],[0.365000,0.365000,0.365000,0.365000,0.365000,0.365000,0.365000,0.720000,0.720000,0.720000,0.720000,0.720000,0.720000,510.000000,510.000000,0.000000,0.000000],[0.365000,0.365000,0.365000,0.365000,0.365000,0.365000,0.365000,0.720000,0.720000,0.720000,0.720000,0.720000,0.720000,510.000000,510.000000,0.000000,0.000000],[0.720000,0.720000,0.720000,0.720000,0.720000,0.720000,0.720000,0.720000,0.720000,0.720000,0.720000,0.720000,0.720000,510.000000,510.000000,0.000000,0.000000]];
